objective value:                                11878
t_x_4                                               1 	(obj:30)
t_x_6                                               1 	(obj:29)
t_x_9                                               1 	(obj:7)
t_x_13                                              1 	(obj:35)
t_x_16                                              1 	(obj:10)
t_x_21                                              1 	(obj:31)
t_x_24                                              1 	(obj:39)
t_x_28                                              1 	(obj:20)
t_x_31                                              1 	(obj:10)
t_x_32                                              1 	(obj:15)
t_x_33                                              1 	(obj:23)
t_x_34                                              1 	(obj:18)
t_x_37                                              1 	(obj:13)
t_x_44                                              1 	(obj:36)
t_x_45                                              1 	(obj:10)
t_x_52                                              1 	(obj:32)
t_x_56                                              1 	(obj:30)
t_x_58                                              1 	(obj:37)
t_x_60                                              1 	(obj:40)
t_x_63                                              1 	(obj:29)
t_x_69                                              1 	(obj:1)
t_x_70                                              1 	(obj:56)
t_x_72                                              1 	(obj:4)
t_x_73                                              1 	(obj:32)
t_x_76                                              1 	(obj:1)
t_x_78                                              1 	(obj:43)
t_x_81                                              1 	(obj:52)
t_x_83                                              1 	(obj:14)
t_x_84                                              1 	(obj:8)
t_x_85                                              1 	(obj:10)
t_x_86                                              1 	(obj:4)
t_x_88                                              1 	(obj:51)
t_x_94                                              1 	(obj:3)
t_x_97                                              1 	(obj:13)
t_x_98                                              1 	(obj:0)
t_x_100                                             1 	(obj:4)
t_x_101                                             1 	(obj:44)
t_x_103                                             1 	(obj:20)
t_x_104                                             1 	(obj:31)
t_x_106                                             1 	(obj:12)
t_x_110                                             1 	(obj:18)
t_x_111                                             1 	(obj:37)
t_x_118                                             1 	(obj:2)
t_x_120                                             1 	(obj:10)
t_x_122                                             1 	(obj:3)
t_x_123                                             1 	(obj:20)
t_x_133                                             1 	(obj:12)
t_x_134                                             1 	(obj:5)
t_x_135                                             1 	(obj:51)
t_x_137                                             1 	(obj:5)
t_x_146                                             1 	(obj:31)
t_x_147                                             1 	(obj:11)
t_x_150                                             1 	(obj:10)
t_x_155                                             1 	(obj:30)
t_x_156                                             1 	(obj:51)
t_x_158                                             1 	(obj:36)
t_x_160                                             1 	(obj:1)
t_x_163                                             1 	(obj:34)
t_x_168                                             1 	(obj:16)
t_x_173                                             1 	(obj:21)
t_x_181                                             1 	(obj:64)
t_x_183                                             1 	(obj:2)
t_x_184                                             1 	(obj:44)
t_x_188                                             1 	(obj:19)
t_x_189                                             1 	(obj:28)
t_x_192                                             1 	(obj:9)
t_x_195                                             1 	(obj:21)
t_x_207                                             1 	(obj:1)
t_x_210                                             1 	(obj:3)
t_x_212                                             1 	(obj:26)
t_x_217                                             1 	(obj:23)
t_x_223                                             1 	(obj:15)
t_x_225                                             1 	(obj:4)
t_x_229                                             1 	(obj:1)
t_x_230                                             1 	(obj:38)
t_x_237                                             1 	(obj:3)
t_x_238                                             1 	(obj:13)
t_x_248                                             1 	(obj:19)
t_x_261                                             1 	(obj:9)
t_x_265                                             1 	(obj:17)
t_x_266                                             1 	(obj:33)
t_x_268                                             1 	(obj:21)
t_x_269                                             1 	(obj:1)
t_x_272                                             1 	(obj:5)
t_x_276                                             1 	(obj:5)
t_x_277                                             1 	(obj:13)
t_x_279                                             1 	(obj:25)
t_x_288                                             1 	(obj:8)
t_x_289                                             1 	(obj:13)
t_x_290                                             1 	(obj:27)
t_x_291                                             1 	(obj:2)
t_x_301                                             1 	(obj:25)
t_x_307                                             1 	(obj:4)
t_x_311                                             1 	(obj:0)
t_x_312                                             1 	(obj:16)
t_x_317                                             1 	(obj:30)
t_x_319                                             1 	(obj:34)
t_x_322                                             1 	(obj:7)
t_x_324                                             1 	(obj:7)
t_x_327                                             1 	(obj:10)
t_x_330                                             1 	(obj:26)
t_x_333                                             1 	(obj:42)
t_x_334                                             1 	(obj:6)
t_x_335                                             1 	(obj:26)
t_x_338                                             1 	(obj:19)
t_x_340                                             1 	(obj:6)
t_x_350                                             1 	(obj:3)
t_x_353                                             1 	(obj:30)
t_x_354                                             1 	(obj:4)
t_x_362                                             1 	(obj:43)
t_x_363                                             1 	(obj:57)
t_x_364                                             1 	(obj:37)
t_x_365                                             1 	(obj:33)
t_x_366                                             1 	(obj:0)
t_x_375                                             1 	(obj:42)
t_x_376                                             1 	(obj:26)
t_x_383                                             1 	(obj:47)
t_x_384                                             1 	(obj:19)
t_x_389                                             1 	(obj:0)
t_x_390                                             1 	(obj:63)
t_x_394                                             1 	(obj:25)
t_x_395                                             1 	(obj:20)
t_x_402                                             1 	(obj:12)
t_x_406                                             1 	(obj:10)
t_x_415                                             1 	(obj:23)
t_x_416                                             1 	(obj:5)
t_x_418                                             1 	(obj:19)
t_x_428                                             1 	(obj:41)
t_x_436                                             1 	(obj:8)
t_x_437                                             1 	(obj:53)
t_x_438                                             1 	(obj:9)
t_x_452                                             1 	(obj:39)
t_x_455                                             1 	(obj:4)
t_x_461                                             1 	(obj:4)
t_x_468                                             1 	(obj:5)
t_x_472                                             1 	(obj:11)
t_x_475                                             1 	(obj:13)
t_x_479                                             1 	(obj:62)
t_x_490                                             1 	(obj:5)
t_x_491                                             1 	(obj:46)
t_x_498                                             1 	(obj:36)
t_x_499                                             1 	(obj:3)
t_x_500                                             1 	(obj:3)
t_x_502                                             1 	(obj:12)
t_x_505                                             1 	(obj:48)
t_x_508                                             1 	(obj:20)
t_x_511                                             1 	(obj:31)
t_x_513                                             1 	(obj:8)
t_x_518                                             1 	(obj:44)
t_x_519                                             1 	(obj:6)
t_x_520                                             1 	(obj:7)
t_x_521                                             1 	(obj:12)
t_x_522                                             1 	(obj:4)
t_x_536                                             1 	(obj:50)
t_x_543                                             1 	(obj:1)
t_x_544                                             1 	(obj:9)
t_x_546                                             1 	(obj:47)
t_x_549                                             1 	(obj:36)
t_x_550                                             1 	(obj:22)
t_x_551                                             1 	(obj:4)
t_x_552                                             1 	(obj:3)
t_x_553                                             1 	(obj:10)
t_x_555                                             1 	(obj:30)
t_x_559                                             1 	(obj:29)
t_x_561                                             1 	(obj:6)
t_x_563                                             1 	(obj:7)
t_x_568                                             1 	(obj:4)
t_x_571                                             1 	(obj:16)
t_x_574                                             1 	(obj:22)
t_x_579                                             1 	(obj:44)
t_x_583                                             1 	(obj:0)
t_x_585                                             1 	(obj:7)
t_x_587                                             1 	(obj:4)
t_x_594                                             1 	(obj:23)
t_x_596                                             1 	(obj:28)
t_x_598                                             1 	(obj:42)
t_x_599                                             1 	(obj:62)
t_x_600                                             1 	(obj:16)
t_x_603                                             1 	(obj:14)
t_x_605                                             1 	(obj:29)
t_x_607                                             1 	(obj:5)
t_x_609                                             1 	(obj:30)
t_x_612                                             1 	(obj:9)
t_x_615                                             1 	(obj:20)
t_x_629                                             1 	(obj:9)
t_x_636                                             1 	(obj:14)
t_x_639                                             1 	(obj:33)
t_x_644                                             1 	(obj:46)
t_x_645                                             1 	(obj:34)
t_x_646                                             1 	(obj:10)
t_x_649                                             1 	(obj:25)
t_x_650                                             1 	(obj:24)
t_x_653                                             1 	(obj:22)
t_x_654                                             1 	(obj:15)
t_x_655                                             1 	(obj:21)
t_x_661                                             1 	(obj:14)
t_x_664                                             1 	(obj:0)
t_x_667                                             1 	(obj:19)
t_x_671                                             1 	(obj:23)
t_x_675                                             1 	(obj:4)
t_x_677                                             1 	(obj:25)
t_x_681                                             1 	(obj:4)
t_x_685                                             1 	(obj:0)
t_x_687                                             1 	(obj:12)
t_x_688                                             1 	(obj:2)
t_x_693                                             1 	(obj:26)
t_x_697                                             1 	(obj:16)
t_x_698                                             1 	(obj:11)
t_x_699                                             1 	(obj:48)
t_x_702                                             1 	(obj:3)
t_x_703                                             1 	(obj:49)
t_x_705                                             1 	(obj:29)
t_x_706                                             1 	(obj:22)
t_x_707                                             1 	(obj:50)
t_x_712                                             1 	(obj:6)
t_x_717                                             1 	(obj:10)
t_x_719                                             1 	(obj:38)
t_x_720                                             1 	(obj:10)
t_x_721                                             1 	(obj:17)
t_x_726                                             1 	(obj:13)
t_x_732                                             1 	(obj:14)
t_x_734                                             1 	(obj:15)
t_x_739                                             1 	(obj:31)
t_x_740                                             1 	(obj:58)
t_x_746                                             1 	(obj:7)
t_x_747                                             1 	(obj:13)
t_x_750                                             1 	(obj:0)
t_x_758                                             1 	(obj:44)
t_x_762                                             1 	(obj:6)
t_x_770                                             1 	(obj:4)
t_x_771                                             1 	(obj:1)
t_x_773                                             1 	(obj:18)
t_x_780                                             1 	(obj:16)
t_x_781                                             1 	(obj:9)
t_x_783                                             1 	(obj:1)
t_x_786                                             1 	(obj:15)
t_x_788                                             1 	(obj:33)
t_x_789                                             1 	(obj:4)
t_x_795                                             1 	(obj:4)
t_x_797                                             1 	(obj:1)
t_x_798                                             1 	(obj:12)
t_x_800                                             1 	(obj:47)
t_x_802                                             1 	(obj:43)
t_x_803                                             1 	(obj:32)
t_x_804                                             1 	(obj:25)
t_x_812                                             1 	(obj:52)
t_x_815                                             1 	(obj:28)
t_x_817                                             1 	(obj:18)
t_x_821                                             1 	(obj:42)
t_x_826                                             1 	(obj:1)
t_x_834                                             1 	(obj:17)
t_x_844                                             1 	(obj:3)
t_x_845                                             1 	(obj:3)
t_x_850                                             1 	(obj:25)
t_x_852                                             1 	(obj:15)
t_x_855                                             1 	(obj:20)
t_x_862                                             1 	(obj:9)
t_x_868                                             1 	(obj:74)
t_x_870                                             1 	(obj:24)
t_x_871                                             1 	(obj:0)
t_x_872                                             1 	(obj:23)
t_x_874                                             1 	(obj:18)
t_x_876                                             1 	(obj:4)
t_x_877                                             1 	(obj:23)
t_x_879                                             1 	(obj:6)
t_x_881                                             1 	(obj:0)
t_x_882                                             1 	(obj:43)
t_x_886                                             1 	(obj:6)
t_x_889                                             1 	(obj:28)
t_x_893                                             1 	(obj:27)
t_x_895                                             1 	(obj:39)
t_x_908                                             1 	(obj:28)
t_x_913                                             1 	(obj:17)
t_x_914                                             1 	(obj:22)
t_x_915                                             1 	(obj:2)
t_x_916                                             1 	(obj:44)
t_x_917                                             1 	(obj:35)
t_x_923                                             1 	(obj:30)
t_x_926                                             1 	(obj:17)
t_x_928                                             1 	(obj:7)
t_x_938                                             1 	(obj:21)
t_x_943                                             1 	(obj:8)
t_x_951                                             1 	(obj:6)
t_x_955                                             1 	(obj:2)
t_x_960                                             1 	(obj:54)
t_x_963                                             1 	(obj:0)
t_x_966                                             1 	(obj:0)
t_x_973                                             1 	(obj:0)
t_x_979                                             1 	(obj:53)
t_x_980                                             1 	(obj:1)
t_x_981                                             1 	(obj:12)
t_x_982                                             1 	(obj:20)
t_x_989                                             1 	(obj:27)
t_x_992                                             1 	(obj:3)
t_x_995                                             1 	(obj:15)
t_x_997                                             1 	(obj:29)
t_x_1001                                            1 	(obj:20)
t_x_1010                                            1 	(obj:26)
t_x_1011                                            1 	(obj:47)
t_x_1014                                            1 	(obj:21)
t_x_1015                                            1 	(obj:9)
t_x_1016                                            1 	(obj:24)
t_x_1018                                            1 	(obj:10)
t_x_1022                                            1 	(obj:20)
t_x_1023                                            1 	(obj:8)
t_x_1025                                            1 	(obj:16)
t_x_1026                                            1 	(obj:11)
t_x_1030                                            1 	(obj:19)
t_x_1032                                            1 	(obj:39)
t_x_1036                                            1 	(obj:1)
t_x_1039                                            1 	(obj:32)
t_x_1041                                            1 	(obj:37)
t_x_1044                                            1 	(obj:27)
t_x_1057                                            1 	(obj:11)
t_x_1073                                            1 	(obj:28)
t_x_1080                                            1 	(obj:15)
t_x_1081                                            1 	(obj:17)
t_x_1085                                            1 	(obj:12)
t_x_1086                                            1 	(obj:33)
t_x_1088                                            1 	(obj:9)
t_x_1092                                            1 	(obj:15)
t_x_1096                                            1 	(obj:42)
t_x_1099                                            1 	(obj:46)
t_x_1102                                            1 	(obj:12)
t_x_1103                                            1 	(obj:4)
t_x_1105                                            1 	(obj:11)
t_x_1106                                            1 	(obj:30)
t_x_1112                                            1 	(obj:12)
t_x_1113                                            1 	(obj:13)
t_x_1115                                            1 	(obj:2)
t_x_1116                                            1 	(obj:27)
t_x_1119                                            1 	(obj:11)
t_x_1122                                            1 	(obj:12)
t_x_1123                                            1 	(obj:47)
t_x_1124                                            1 	(obj:6)
t_x_1131                                            1 	(obj:9)
t_x_1132                                            1 	(obj:5)
t_x_1140                                            1 	(obj:18)
t_x_1142                                            1 	(obj:6)
t_x_1147                                            1 	(obj:26)
t_x_1148                                            1 	(obj:3)
t_x_1149                                            1 	(obj:11)
t_x_1156                                            1 	(obj:17)
t_x_1157                                            1 	(obj:19)
t_x_1158                                            1 	(obj:58)
t_x_1161                                            1 	(obj:5)
t_x_1162                                            1 	(obj:26)
t_x_1174                                            1 	(obj:36)
t_x_1176                                            1 	(obj:7)
t_x_1179                                            1 	(obj:18)
t_x_1181                                            1 	(obj:13)
t_x_1192                                            1 	(obj:43)
t_x_1195                                            1 	(obj:8)
t_x_1197                                            1 	(obj:10)
t_x_1200                                            1 	(obj:33)
t_x_1206                                            1 	(obj:10)
t_x_1213                                            1 	(obj:16)
t_x_1215                                            1 	(obj:11)
t_x_1220                                            1 	(obj:15)
t_x_1221                                            1 	(obj:51)
t_x_1224                                            1 	(obj:27)
t_x_1227                                            1 	(obj:26)
t_x_1229                                            1 	(obj:10)
t_x_1230                                            1 	(obj:37)
t_x_1235                                            1 	(obj:16)
t_x_1237                                            1 	(obj:39)
t_x_1239                                            1 	(obj:38)
t_x_1242                                            1 	(obj:24)
t_x_1245                                            1 	(obj:10)
t_x_1246                                            1 	(obj:14)
t_x_1249                                            1 	(obj:7)
t_x_1254                                            1 	(obj:39)
t_x_1256                                            1 	(obj:2)
t_x_1258                                            1 	(obj:5)
t_x_1260                                            1 	(obj:1)
t_x_1263                                            1 	(obj:6)
t_x_1267                                            1 	(obj:1)
t_x_1268                                            1 	(obj:27)
t_x_1269                                            1 	(obj:30)
t_x_1280                                            1 	(obj:23)
t_x_1281                                            1 	(obj:0)
t_x_1282                                            1 	(obj:58)
t_x_1284                                            1 	(obj:31)
t_x_1288                                            1 	(obj:23)
t_x_1291                                            1 	(obj:0)
t_x_1293                                            1 	(obj:27)
t_x_1294                                            1 	(obj:4)
t_x_1296                                            1 	(obj:19)
t_x_1297                                            1 	(obj:0)
t_x_1298                                            1 	(obj:26)
t_x_1299                                            1 	(obj:4)
t_x_1303                                            1 	(obj:20)
t_x_1305                                            1 	(obj:33)
t_x_1308                                            1 	(obj:36)
t_x_1313                                            1 	(obj:18)
t_x_1316                                            1 	(obj:16)
t_x_1319                                            1 	(obj:16)
t_x_1320                                            1 	(obj:10)
t_x_1324                                            1 	(obj:25)
t_x_1333                                            1 	(obj:1)
t_x_1334                                            1 	(obj:0)
t_x_1339                                            1 	(obj:2)
t_x_1340                                            1 	(obj:24)
t_x_1346                                            1 	(obj:22)
t_x_1347                                            1 	(obj:93)
t_x_1350                                            1 	(obj:0)
t_x_1358                                            1 	(obj:3)
t_x_1359                                            1 	(obj:27)
t_x_1360                                            1 	(obj:4)
t_x_1364                                            1 	(obj:48)
t_x_1366                                            1 	(obj:53)
t_x_1367                                            1 	(obj:51)
t_x_1370                                            1 	(obj:24)
t_x_1371                                            1 	(obj:16)
t_x_1372                                            1 	(obj:16)
t_x_1374                                            1 	(obj:24)
t_x_1378                                            1 	(obj:27)
t_x_1380                                            1 	(obj:10)
t_x_1383                                            1 	(obj:14)
t_x_1390                                            1 	(obj:24)
t_x_1392                                            1 	(obj:6)
t_x_1393                                            1 	(obj:2)
t_x_1396                                            1 	(obj:11)
t_x_1400                                            1 	(obj:25)
t_x_1401                                            1 	(obj:11)
t_x_1404                                            1 	(obj:41)
t_x_1406                                            1 	(obj:16)
t_x_1407                                            1 	(obj:25)
t_x_1412                                            1 	(obj:23)
t_x_1420                                            1 	(obj:24)
t_x_1423                                            1 	(obj:45)
t_x_1424                                            1 	(obj:9)
t_x_1430                                            1 	(obj:14)
t_x_1431                                            1 	(obj:18)
t_x_1432                                            1 	(obj:26)
t_x_1434                                            1 	(obj:16)
t_x_1438                                            1 	(obj:17)
t_x_1439                                            1 	(obj:10)
t_x_1443                                            1 	(obj:2)
t_x_1444                                            1 	(obj:40)
t_x_1448                                            1 	(obj:5)
t_x_1450                                            1 	(obj:30)
t_x_1451                                            1 	(obj:26)
t_x_1452                                            1 	(obj:22)
t_x_1454                                            1 	(obj:18)
t_x_1456                                            1 	(obj:2)
t_x_1462                                            1 	(obj:1)
t_x_1463                                            1 	(obj:3)
t_x_1464                                            1 	(obj:19)
t_x_1473                                            1 	(obj:22)
t_x_1480                                            1 	(obj:17)
t_x_1481                                            1 	(obj:0)
t_x_1487                                            1 	(obj:38)
t_x_1490                                            1 	(obj:43)
t_x_1494                                            1 	(obj:65)
t_x_1498                                            1 	(obj:59)
t_x_1501                                            1 	(obj:15)
t_x_1505                                            1 	(obj:14)
t_x_1506                                            1 	(obj:15)
t_x_1508                                            1 	(obj:6)
t_x_1512                                            1 	(obj:18)
t_x_1518                                            1 	(obj:2)
t_x_1520                                            1 	(obj:28)
t_x_1521                                            1 	(obj:28)
t_x_1524                                            1 	(obj:9)
t_x_1527                                            1 	(obj:18)
t_x_1529                                            1 	(obj:33)
t_x_1533                                            1 	(obj:21)
t_x_1541                                            1 	(obj:6)
t_x_1548                                            1 	(obj:23)
t_x_1552                                            1 	(obj:51)
t_x_1553                                            1 	(obj:4)
t_x_1555                                            1 	(obj:17)
t_x_1557                                            1 	(obj:17)
t_x_1561                                            1 	(obj:1)
t_x_1569                                            1 	(obj:10)
t_x_1570                                            1 	(obj:16)
t_x_1574                                            1 	(obj:3)
t_x_1576                                            1 	(obj:28)
t_x_1582                                            1 	(obj:3)
t_x_1592                                            1 	(obj:17)
t_x_1595                                            1 	(obj:0)
t_x_1599                                            1 	(obj:30)
t_x_1602                                            1 	(obj:9)
t_x_1603                                            1 	(obj:21)
t_x_1605                                            1 	(obj:8)
t_x_1609                                            1 	(obj:22)
t_x_1610                                            1 	(obj:8)
t_x_1611                                            1 	(obj:4)
t_x_1613                                            1 	(obj:45)
t_x_1617                                            1 	(obj:13)
t_x_1621                                            1 	(obj:3)
t_x_1622                                            1 	(obj:23)
t_x_1624                                            1 	(obj:19)
t_x_1630                                            1 	(obj:36)
t_x_1632                                            1 	(obj:22)
t_x_1633                                            1 	(obj:16)
t_x_1643                                            1 	(obj:15)
t_x_1646                                            1 	(obj:31)
t_x_1654                                            1 	(obj:20)
t_x_1656                                            1 	(obj:9)
t_x_1667                                            1 	(obj:9)
t_x_1669                                            1 	(obj:17)
t_x_1671                                            1 	(obj:1)
t_x_1674                                            1 	(obj:25)
t_x_1676                                            1 	(obj:31)
t_x_1678                                            1 	(obj:2)
t_x_1686                                            1 	(obj:23)
t_x_1694                                            1 	(obj:0)
t_x_1695                                            1 	(obj:2)
t_x_1697                                            1 	(obj:33)
t_x_1701                                            1 	(obj:19)
t_x_1702                                            1 	(obj:37)
t_x_1706                                            1 	(obj:9)
t_x_1709                                            1 	(obj:17)
t_x_1711                                            1 	(obj:6)
t_x_1716                                            1 	(obj:1)
t_x_1718                                            1 	(obj:41)
t_x_1720                                            1 	(obj:15)
t_x_1724                                            1 	(obj:28)
t_x_1725                                            1 	(obj:6)
t_x_1729                                            1 	(obj:41)
t_x_1732                                            1 	(obj:57)
t_x_1737                                            1 	(obj:2)
t_x_1738                                            1 	(obj:30)
t_x_1741                                            1 	(obj:35)
t_x_1742                                            1 	(obj:17)
t_x_1743                                            1 	(obj:18)
t_x_1744                                            1 	(obj:61)
t_x_1746                                            1 	(obj:13)
t_x_1747                                            1 	(obj:1)
t_x_1751                                            1 	(obj:61)
t_x_1757                                            1 	(obj:35)
t_x_1759                                            1 	(obj:25)
t_x_1763                                            1 	(obj:4)
t_x_1765                                            1 	(obj:13)
t_x_1766                                            1 	(obj:12)
t_x_1774                                            1 	(obj:1)
t_x_1776                                            1 	(obj:24)
t_x_1779                                            1 	(obj:23)
t_x_1784                                            1 	(obj:34)
t_x_1792                                            1 	(obj:19)
t_x_1794                                            1 	(obj:5)
t_x_1795                                            1 	(obj:13)
t_x_1796                                            1 	(obj:11)
t_x_1797                                            1 	(obj:10)
t_x_1809                                            1 	(obj:23)
t_x_1813                                            1 	(obj:13)
t_x_1814                                            1 	(obj:42)
t_x_1822                                            1 	(obj:1)
t_x_1827                                            1 	(obj:2)
t_x_1832                                            1 	(obj:13)
t_x_1835                                            1 	(obj:0)
t_x_1841                                            1 	(obj:12)
t_x_1845                                            1 	(obj:29)
t_x_1847                                            1 	(obj:18)
t_x_1849                                            1 	(obj:2)
t_x_1850                                            1 	(obj:3)
t_x_1852                                            1 	(obj:3)
t_x_1863                                            1 	(obj:5)
t_x_1865                                            1 	(obj:19)
t_x_1866                                            1 	(obj:31)
t_x_1869                                            1 	(obj:21)
t_x_1872                                            1 	(obj:3)
t_x_1873                                            1 	(obj:20)
t_x_1876                                            1 	(obj:11)
t_x_1879                                            1 	(obj:11)
t_x_1882                                            1 	(obj:26)
t_x_1883                                            1 	(obj:6)
t_x_1884                                            1 	(obj:21)
t_x_1885                                            1 	(obj:4)
t_x_1886                                            1 	(obj:31)
t_x_1890                                            1 	(obj:18)
t_x_1892                                            1 	(obj:0)
t_x_1893                                            1 	(obj:18)
t_x_1896                                            1 	(obj:7)
t_x_1897                                            1 	(obj:35)
t_x_1900                                            1 	(obj:3)
t_x_1901                                            1 	(obj:10)
t_x_1902                                            1 	(obj:27)
t_x_1904                                            1 	(obj:23)
t_x_1905                                            1 	(obj:0)
t_x_1907                                            1 	(obj:53)
t_x_1910                                            1 	(obj:11)
t_x_1916                                            1 	(obj:9)
t_x_1924                                            1 	(obj:8)
t_x_1929                                            1 	(obj:18)
t_x_1931                                            1 	(obj:6)
t_x_1932                                            1 	(obj:23)
t_x_1933                                            1 	(obj:46)
t_x_1934                                            1 	(obj:49)
t_x_1944                                            1 	(obj:18)
t_x_1947                                            1 	(obj:31)
t_x_1950                                            1 	(obj:7)
t_x_1952                                            1 	(obj:5)
t_x_1954                                            1 	(obj:8)
t_x_1963                                            1 	(obj:4)
t_x_1967                                            1 	(obj:17)
t_x_1968                                            1 	(obj:47)
t_x_1971                                            1 	(obj:0)
t_x_1972                                            1 	(obj:5)
t_x_1975                                            1 	(obj:19)
t_x_1979                                            1 	(obj:50)
t_x_1982                                            1 	(obj:25)
t_x_1991                                            1 	(obj:9)
t_x_1994                                            1 	(obj:2)
t_x_1998                                            1 	(obj:42)
t_x_1999                                            1 	(obj:63)
